Solver command line: ['C:\\Program Files\\IBM\\ILOG\\CPLEX_Studio221\\cplex\\bin\\x64_win64\\cplex.exe']


Welcome to IBM(R) ILOG(R) CPLEX(R) Interactive Optimizer 22.1.0.0
  with Simplex, Mixed Integer & Barrier Optimizers
5725-A06 5725-A29 5724-Y48 5724-Y49 5724-Y54 5724-Y55 5655-Y21
Copyright IBM Corp. 1988, 2022.  All Rights Reserved.

Type 'help' for a list of available commands.
Type 'help' followed by a command name for more
information on commands.

CPLEX> Logfile 'cplex.log' closed.
Logfile 'data\30_bus\3_trips_per_bus\3_6_3\step2.log' open.
CPLEX> New value for mixed integer solutions limit: 20000
CPLEX> New value for time limit in seconds: 60
CPLEX> New value for default parallel thread count: 1
CPLEX> Problem 'C:\Users\Mathis\AppData\Local\Temp\tmpnqbobymk.pyomo.lp' read.
Read time = 0.03 sec. (2.85 ticks)
CPLEX> Problem name         : C:\Users\Mathis\AppData\Local\Temp\tmpnqbobymk.pyomo.lp
Objective sense      : Minimize
Variables            :    3301  [Nneg: 1501,  Binary: 1800]
Objective nonzeros   :    1800
Linear constraints   :   38520  [Less: 38189,  Greater: 300,  Equal: 31]
  Nonzeros           :   67741
  RHS nonzeros       :   35001

Variables            : Min LB: 0.000000         Max UB: 1.000000       
Objective nonzeros   : Min   : 1.000000         Max   : 1.000000       
Linear constraints   :
  Nonzeros           : Min   : 1.000000         Max   : 10000.00       
  RHS nonzeros       : Min   : 1.000000         Max   : 1500.000       
CPLEX> Version identifier: 22.1.0.0 | 2022-03-09 | 1a383f8ce
CPXPARAM_Threads                                 1
CPXPARAM_MIP_Limits_Solutions                    20000
CPXPARAM_TimeLimit                               60
Tried aggregator 8 times.
MIP Presolve eliminated 35099 rows and 567 columns.
MIP Presolve modified 1950 coefficients.
Aggregator did 60 substitutions.
Reduced MIP has 3361 rows, 2674 columns, and 9105 nonzeros.
Reduced MIP has 1431 binaries, 0 generals, 0 SOSs, and 0 indicators.
Presolve time = 0.05 sec. (66.96 ticks)
Found incumbent of value 626.000000 after 0.08 sec. (76.15 ticks)
Probing time = 0.00 sec. (0.96 ticks)
Tried aggregator 1 time.
Detecting symmetries...
MIP Presolve eliminated 4 rows and 10 columns.
MIP Presolve modified 42 coefficients.
Reduced MIP has 3357 rows, 2664 columns, and 9097 nonzeros.
Reduced MIP has 1431 binaries, 0 generals, 0 SOSs, and 0 indicators.
Presolve time = 0.00 sec. (5.92 ticks)
Probing time = 0.00 sec. (0.93 ticks)
Clique table members: 225.
MIP emphasis: balance optimality and feasibility.
MIP search method: dynamic search.
Parallel mode: none, using 1 thread.
Root relaxation solution time = 0.00 sec. (20.87 ticks)

        Nodes                                         Cuts/
   Node  Left     Objective  IInf  Best Integer    Best Bound    ItCnt     Gap

*     0+    0                          626.0000      174.0000            72.20%
      0     0      408.2561   656      626.0000      408.2561     2003   34.78%
      0     0      455.3150   688      626.0000     Cuts: 939     2659   27.27%
      0     0      479.1084   658      626.0000     Cuts: 939     3334   23.47%
      0     0      492.3880   653      626.0000     Cuts: 939     4058   21.34%
*     0+    0                          550.0000      492.3880            10.47%
      0     0      500.2487   596      550.0000     Cuts: 817     4675    9.05%
      0     0      506.7483   680      550.0000     Cuts: 732     5333    7.86%
      0     0      512.3400   561      550.0000     Cuts: 686     5928    6.85%
*     0+    0                          547.0000      512.3400             6.34%
*     0+    0                          546.0000      512.3400             6.16%
      0     0  -1.00000e+75     0      546.0000      512.3400     5928    6.16%
      0     0      516.2254   509      546.0000     Cuts: 448     6342    5.45%
*     0+    0                          536.0000      516.2254             3.69%
      0     0      518.9877   377      536.0000     Cuts: 430     6658    3.17%
*     0+    0                          528.0000      518.9877             1.71%
      0     0      522.3457   263      528.0000     Cuts: 328     7080    1.07%
      0     0      522.7526   204      528.0000     Cuts: 168     7256    0.99%
*     0+    0                          524.0000      522.7526             0.24%
      0     0      522.9977   118      524.0000     Cuts: 128     7337    0.19%
*     0+    0                          523.0000      522.9977             0.00%
      0     0        cutoff            523.0000      522.9977     7337    0.00%
Elapsed time = 0.53 sec. (514.25 ticks, tree = 0.01 MB, solutions = 8)

Clique cuts applied:  135
Cover cuts applied:  15
Implied bound cuts applied:  92
Flow cuts applied:  808
Mixed integer rounding cuts applied:  896
Zero-half cuts applied:  3
Gomory fractional cuts applied:  31

Root node processing (before b&c):
  Real time             =    0.53 sec. (514.60 ticks)
Sequential b&c:
  Real time             =    0.00 sec. (0.00 ticks)
                          ------------
Total (root+branch&cut) =    0.53 sec. (514.60 ticks)

Solution pool: 8 solutions saved.

MIP - Integer optimal solution:  Objective =  5.2300000000e+02
Solution time =    0.53 sec.  Iterations = 7337  Nodes = 0
Deterministic time = 514.61 ticks  (969.13 ticks/sec)

CPLEX> Incumbent solution written to file 'C:\Users\Mathis\AppData\Local\Temp\tmpv62g3z43.cplex.sol'.
CPLEX> 
